TITL vivan6 in P2(1)/c
    vivan6.res
    created by SHELXL-2018/3 at 07:56:56 on 07-Aug-2021
CELL 1.54178 8.8907 11.4813 15.5497 90 103.465 90
ZERR 4 0.0001 0.0001 0.0002 0 0.001 0
LATT 1
SYMM -X,0.5+Y,0.5-Z
SFAC C H N F P
UNIT 56 60 16 24 4

L.S. 5
PLAN  5
SIZE 0.15 0.15 0.2
TEMP -123
CONF
MPLA 15 N1 C1 C2 C3 C4 C5 N2 N3 C14 N4 C9 C10 C11 C12 C13 C6 C7 C8
MPLA 3 C6 C7 C8
BOND $H
WPDB -1
MORE -1
fmap 2
acta
REM <olex2.extras>
REM <HklSrc "%.\\vivan6.hkl">
REM </olex2.extras>

WGHT    0.045600    0.570900
EXTI    0.009963
FVAR       3.64066
N1    3    0.985007    0.348480    0.518725    11.00000    0.02393    0.02691 =
         0.02929    0.00086    0.00346   -0.00192
N2    3    0.853481    0.208022    0.420244    11.00000    0.02061    0.02249 =
         0.02248    0.00078    0.00453    0.00193
N3    3    0.589942    0.238538    0.361492    11.00000    0.02042    0.02144 =
         0.02144    0.00031    0.00397    0.00015
N4    3    0.487297    0.414169    0.398132    11.00000    0.02473    0.02743 =
         0.02878   -0.00060    0.00481    0.00373
C1    1    1.116352    0.391167    0.569169    11.00000    0.02987    0.03252 =
         0.03050    0.00224    0.00120   -0.00714
AFIX  43
H1    2    1.110785    0.459604    0.602626    11.00000   -1.20000
AFIX   0
C2    1    1.260011    0.340694    0.575110    11.00000    0.02380    0.04357 =
         0.03351    0.01242   -0.00183   -0.00799
AFIX  43
H2    2    1.350378    0.373240    0.612245    11.00000   -1.20000
AFIX   0
C3    1    1.268668    0.242042    0.525802    11.00000    0.02108    0.04188 =
         0.04008    0.01538    0.00522    0.00331
AFIX  43
H3    2    1.365615    0.205736    0.528317    11.00000   -1.20000
AFIX   0
C4    1    1.134893    0.196533    0.472697    11.00000    0.02369    0.03196 =
         0.03314    0.00696    0.00757    0.00432
AFIX  43
H4    2    1.137385    0.129279    0.437466    11.00000   -1.20000
AFIX   0
C5    1    0.996713    0.252934    0.472842    11.00000    0.02072    0.02539 =
         0.02301    0.00617    0.00385   -0.00024
C6    1    0.850701    0.089440    0.382967    11.00000    0.02829    0.02347 =
         0.03048   -0.00231    0.00611    0.00460
AFIX  23
H6A   2    0.923654    0.038614    0.424296    11.00000   -1.20000
H6B   2    0.883071    0.092050    0.326237    11.00000   -1.20000
AFIX   0
C7    1    0.688695    0.041102    0.368139    11.00000    0.03030    0.02096 =
         0.03234   -0.00137    0.00703    0.00018
AFIX  23
H7A   2    0.682778   -0.033831    0.336023    11.00000   -1.20000
H7B   2    0.663702    0.026078    0.425945    11.00000   -1.20000
AFIX   0
C8    1    0.572258    0.125189    0.315507    11.00000    0.02668    0.02241 =
         0.02743   -0.00357    0.00467   -0.00316
AFIX  23
H8A   2    0.589855    0.134400    0.255308    11.00000   -1.20000
H8B   2    0.466163    0.095008    0.310133    11.00000   -1.20000
AFIX   0
C9    1    0.459270    0.315306    0.353190    11.00000    0.02083    0.02634 =
         0.02034    0.00418    0.00600    0.00166
C10   1    0.315661    0.284969    0.301329    11.00000    0.02509    0.03381 =
         0.02849    0.00069    0.00181   -0.00105
AFIX  43
H10   2    0.300852    0.213921    0.269145    11.00000   -1.20000
AFIX   0
C11   1    0.194571    0.361973    0.298133    11.00000    0.02103    0.04783 =
         0.03520    0.00792    0.00136    0.00254
AFIX  43
H11   2    0.094225    0.343981    0.263730    11.00000   -1.20000
AFIX   0
C12   1    0.220143    0.464894    0.345072    11.00000    0.02662    0.04133 =
         0.03287    0.00974    0.01018    0.01132
AFIX  43
H12   2    0.138513    0.518681    0.343954    11.00000   -1.20000
AFIX   0
C13   1    0.368119    0.487212    0.393707    11.00000    0.03064    0.03070 =
         0.03117    0.00169    0.00911    0.00776
AFIX  43
H13   2    0.386510    0.558223    0.425801    11.00000   -1.20000
AFIX   0
C14   1    0.726582    0.271060    0.408830    11.00000    0.02147    0.02167 =
         0.02046    0.00176    0.00493    0.00045
AFIX  43
H14   2    0.733969    0.345184    0.436651    11.00000   -1.20000
AFIX   0

P1    5    0.738200    0.123336    0.653001    11.00000    0.02202    0.02644 =
         0.02400   -0.00105    0.00545   -0.00025
F11   4    0.668174    0.215287    0.577403    11.00000    0.03744    0.04632 =
         0.04643    0.01505    0.00754    0.01113
F12   4    0.587740    0.136674    0.691743    11.00000    0.03295    0.05633 =
         0.04161   -0.01775    0.01924   -0.01138
F13   4    0.655750    0.020257    0.590244    11.00000    0.04340    0.04334 =
         0.04308   -0.01773    0.01665   -0.01252
F14   4    0.888228    0.109674    0.613643    11.00000    0.02760    0.04075 =
         0.04864   -0.00012    0.01579    0.00426
F15   4    0.820383    0.226355    0.715695    11.00000    0.03399    0.04894 =
         0.05150   -0.02114    0.00839   -0.01090
F16   4    0.808252    0.030507    0.727962    11.00000    0.06149    0.05666 =
         0.04457    0.02344    0.00455    0.00497
HKLF 4




REM  vivan6 in P2(1)/c
REM wR2 = 0.0800, GooF = S = 1.042, Restrained GooF = 1.042 for all data
REM R1 = 0.0307 for 2752 Fo > 4sig(Fo) and 0.0312 for all 2847 data
REM 227 parameters refined using 0 restraints

END  
     
WGHT      0.0457      0.5713 

REM Highest difference peak  0.198,  deepest hole -0.335,  1-sigma level  0.060
Q1    1   0.5810  0.1862  0.3396  11.00000  0.05    0.20
Q2    1   0.8349  0.1782  0.7658  11.00000  0.05    0.20
Q3    1   0.6167  0.0929  0.7492  11.00000  0.05    0.19
Q4    1   1.2642  0.3097  0.5307  11.00000  0.05    0.19
Q5    1   0.8844  0.0690  0.6510  11.00000  0.05    0.17

  REM The information below was added by Olex2.
  REM
  REM R1 = 0.0307 for 2752 Fo > 4sig(Fo) and 0.0312 for all 20975 data
  REM 227 parameters refined using n/a restraints
  REM Highest difference peak 0.20, deepest hole -0.33
  REM Mean Shift 0, Max Shift -0.001.

  REM +++ Tabular Listing of Refinement Information +++
  REM R1_all = 0.0312
  REM R1_gt = 0.0307
  REM wR_ref = 0.0800
  REM GOOF = 1.042
  REM Shift_max = -0.001
  REM Shift_mean = 0
  REM Reflections_all = 20975
  REM Reflections_gt = 2752
  REM Parameters = 227
  REM Hole = -0.33
  REM Peak = 0.20
  REM Flack = n/a

  